p cnf 220 480
1 11 0
-12 0
2 13 0
-11 13 0
2 -11 14 0
-12 14 0
2 -12 0
3 15 0
-13 15 0
3 -13 16 0
-14 16 0
3 -14 0
4 -16 0
-1 17 0
-18 0
-2 19 0
-17 19 0
-2 -17 20 0
-18 20 0
-2 -18 0
-3 21 0
-19 21 0
-3 -19 22 0
-20 22 0
-3 -20 0
-4 -22 0
1 23 0
-24 0
5 25 0
-23 25 0
5 -23 26 0
-24 26 0
5 -24 0
6 27 0
-25 27 0
6 -25 28 0
-26 28 0
6 -26 0
7 -28 0
-1 29 0
-30 0
-5 31 0
-29 31 0
-5 -29 32 0
-30 32 0
-5 -30 0
-6 33 0
-31 33 0
-6 -31 34 0
-32 34 0
-6 -32 0
-7 -34 0
2 35 0
-36 0
5 37 0
-35 37 0
5 -35 38 0
-36 38 0
5 -36 0
8 39 0
-37 39 0
8 -37 40 0
-38 40 0
8 -38 0
9 -40 0
-2 41 0
-42 0
-5 43 0
-41 43 0
-5 -41 44 0
-42 44 0
-5 -42 0
-8 45 0
-43 45 0
-8 -43 46 0
-44 46 0
-8 -44 0
-9 -46 0
3 47 0
-48 0
6 49 0
-47 49 0
6 -47 50 0
-48 50 0
6 -48 0
8 51 0
-49 51 0
8 -49 52 0
-50 52 0
8 -50 0
10 -52 0
-3 53 0
-54 0
-6 55 0
-53 55 0
-6 -53 56 0
-54 56 0
-6 -54 0
-8 57 0
-55 57 0
-8 -55 58 0
-56 58 0
-8 -56 0
-10 -58 0
4 59 0
-60 0
7 61 0
-59 61 0
7 -59 62 0
-60 62 0
7 -60 0
9 63 0
-61 63 0
9 -61 64 0
-62 64 0
9 -62 0
10 -64 0
-4 65 0
-66 0
-7 67 0
-65 67 0
-7 -65 68 0
-66 68 0
-7 -66 0
-9 69 0
-67 69 0
-9 -67 70 0
-68 70 0
-9 -68 0
-10 -70 0
-71 2 0
-71 5 0
-2 -5 71 0
-72 3 0
-72 6 0
-3 -6 72 0
-73 4 0
-73 7 0
-4 -7 73 0
71 74 0
-75 0
-76 0
72 77 0
-74 77 0
72 -74 78 0
-75 78 0
72 -75 79 0
-76 79 0
72 -76 0
73 80 0
-77 80 0
73 -77 81 0
-78 81 0
73 -78 82 0
-79 82 0
73 -79 0
1 -82 0
-71 83 0
-72 84 0
-83 84 0
-72 -83 0
-73 85 0
-84 85 0
-73 -84 0
-1 -85 0
-86 1 0
-86 5 0
-1 -5 86 0
-87 3 0
-87 8 0
-3 -8 87 0
-88 4 0
-88 9 0
-4 -9 88 0
86 89 0
-90 0
-91 0
87 92 0
-89 92 0
87 -89 93 0
-90 93 0
87 -90 94 0
-91 94 0
87 -91 0
88 95 0
-92 95 0
88 -92 96 0
-93 96 0
88 -93 97 0
-94 97 0
88 -94 0
2 -97 0
-86 98 0
-87 99 0
-98 99 0
-87 -98 0
-88 100 0
-99 100 0
-88 -99 0
-2 -100 0
-101 1 0
-101 6 0
-1 -6 101 0
-102 2 0
-102 8 0
-2 -8 102 0
-103 4 0
-103 10 0
-4 -10 103 0
101 104 0
-105 0
-106 0
102 107 0
-104 107 0
102 -104 108 0
-105 108 0
102 -105 109 0
-106 109 0
102 -106 0
103 110 0
-107 110 0
103 -107 111 0
-108 111 0
103 -108 112 0
-109 112 0
103 -109 0
3 -112 0
-101 113 0
-102 114 0
-113 114 0
-102 -113 0
-103 115 0
-114 115 0
-103 -114 0
-3 -115 0
-116 1 0
-116 7 0
-1 -7 116 0
-117 2 0
-117 9 0
-2 -9 117 0
-118 3 0
-118 10 0
-3 -10 118 0
116 119 0
-120 0
-121 0
117 122 0
-119 122 0
117 -119 123 0
-120 123 0
117 -120 124 0
-121 124 0
117 -121 0
118 125 0
-122 125 0
118 -122 126 0
-123 126 0
118 -123 127 0
-124 127 0
118 -124 0
4 -127 0
-116 128 0
-117 129 0
-128 129 0
-117 -128 0
-118 130 0
-129 130 0
-118 -129 0
-4 -130 0
-131 1 0
-131 2 0
-1 -2 131 0
-132 6 0
-132 8 0
-6 -8 132 0
-133 7 0
-133 9 0
-7 -9 133 0
131 134 0
-135 0
-136 0
132 137 0
-134 137 0
132 -134 138 0
-135 138 0
132 -135 139 0
-136 139 0
132 -136 0
133 140 0
-137 140 0
133 -137 141 0
-138 141 0
133 -138 142 0
-139 142 0
133 -139 0
5 -142 0
-131 143 0
-132 144 0
-143 144 0
-132 -143 0
-133 145 0
-144 145 0
-133 -144 0
-5 -145 0
-146 1 0
-146 3 0
-1 -3 146 0
-147 5 0
-147 8 0
-5 -8 147 0
-148 7 0
-148 10 0
-7 -10 148 0
146 149 0
-150 0
-151 0
147 152 0
-149 152 0
147 -149 153 0
-150 153 0
147 -150 154 0
-151 154 0
147 -151 0
148 155 0
-152 155 0
148 -152 156 0
-153 156 0
148 -153 157 0
-154 157 0
148 -154 0
6 -157 0
-146 158 0
-147 159 0
-158 159 0
-147 -158 0
-148 160 0
-159 160 0
-148 -159 0
-6 -160 0
-161 1 0
-161 4 0
-1 -4 161 0
-162 5 0
-162 9 0
-5 -9 162 0
-163 6 0
-163 10 0
-6 -10 163 0
161 164 0
-165 0
-166 0
162 167 0
-164 167 0
162 -164 168 0
-165 168 0
162 -165 169 0
-166 169 0
162 -166 0
163 170 0
-167 170 0
163 -167 171 0
-168 171 0
163 -168 172 0
-169 172 0
163 -169 0
7 -172 0
-161 173 0
-162 174 0
-173 174 0
-162 -173 0
-163 175 0
-174 175 0
-163 -174 0
-7 -175 0
-176 2 0
-176 3 0
-2 -3 176 0
-177 5 0
-177 6 0
-5 -6 177 0
-178 9 0
-178 10 0
-9 -10 178 0
176 179 0
-180 0
-181 0
177 182 0
-179 182 0
177 -179 183 0
-180 183 0
177 -180 184 0
-181 184 0
177 -181 0
178 185 0
-182 185 0
178 -182 186 0
-183 186 0
178 -183 187 0
-184 187 0
178 -184 0
8 -187 0
-176 188 0
-177 189 0
-188 189 0
-177 -188 0
-178 190 0
-189 190 0
-178 -189 0
-8 -190 0
-191 2 0
-191 4 0
-2 -4 191 0
-192 5 0
-192 7 0
-5 -7 192 0
-193 8 0
-193 10 0
-8 -10 193 0
191 194 0
-195 0
-196 0
192 197 0
-194 197 0
192 -194 198 0
-195 198 0
192 -195 199 0
-196 199 0
192 -196 0
193 200 0
-197 200 0
193 -197 201 0
-198 201 0
193 -198 202 0
-199 202 0
193 -199 0
9 -202 0
-191 203 0
-192 204 0
-203 204 0
-192 -203 0
-193 205 0
-204 205 0
-193 -204 0
-9 -205 0
-206 3 0
-206 4 0
-3 -4 206 0
-207 6 0
-207 7 0
-6 -7 207 0
-208 8 0
-208 9 0
-8 -9 208 0
206 209 0
-210 0
-211 0
207 212 0
-209 212 0
207 -209 213 0
-210 213 0
207 -210 214 0
-211 214 0
207 -211 0
208 215 0
-212 215 0
208 -212 216 0
-213 216 0
208 -213 217 0
-214 217 0
208 -214 0
10 -217 0
-206 218 0
-207 219 0
-218 219 0
-207 -218 0
-208 220 0
-219 220 0
-208 -219 0
-10 -220 0
